Version identifier: 12.10.0.0 | 2019-11-26 | 843d4de
CPXPARAM_WorkMem                                 28672
Tried aggregator 2 times.
Aggregator did 45 substitutions.
Reduced MIP has 245 rows, 300 columns, and 1135 nonzeros.
Reduced MIP has 300 binaries, 0 generals, 0 SOSs, and 0 indicators.
Presolve time = 0,00 sec. (1,07 ticks)
Found incumbent of value 225,000000 after 0,00 sec. (1,95 ticks)
Probing time = 0,00 sec. (0,43 ticks)
Tried aggregator 1 time.
Detecting symmetries...
MIP Presolve eliminated 60 rows and 0 columns.
MIP Presolve added 120 rows and 0 columns.
Reduced MIP has 305 rows, 300 columns, and 1195 nonzeros.
Reduced MIP has 300 binaries, 0 generals, 0 SOSs, and 0 indicators.
Presolve time = 0,00 sec. (1,51 ticks)
Probing time = 0,00 sec. (0,42 ticks)
Clique table members: 775.
MIP emphasis: balance optimality and feasibility.
MIP search method: dynamic search.
Parallel mode: deterministic, using up to 16 threads.
Root relaxation solution time = 0,00 sec. (1,49 ticks)

        Nodes                                         Cuts/
   Node  Left     Objective  IInf  Best Integer    Best Bound    ItCnt     Gap

*     0+    0                          225,0000        0,0000           100,00%
*     0+    0                          114,0000        0,0000           100,00%
*     0+    0                          112,0000        0,0000           100,00%
      0     0       45,0000   231      112,0000       45,0000      140   59,82%
      0     0       45,5965   231      112,0000     Cuts: 166      264   59,29%
      0     0       46,6686   231      112,0000     Cuts: 176      332   58,33%
*     0+    0                          111,0000       46,6686            57,96%
      0     0       46,8422   231      111,0000     Cuts: 176      373   57,80%
      0     0       46,9614   231      111,0000       Cuts: 5      416   57,69%
      0     0       47,0817   231      111,0000      Cuts: 88      441   57,58%
      0     0       55,3970   231      111,0000     Cuts: 176      762   50,09%
      0     0       55,4740   231      111,0000      Cuts: 13      784   50,02%
*     0+    0                          101,0000       55,4740            45,08%
      0     0       55,5636   231      101,0000      Fract: 1      795   44,99%
      0     0       55,5758   231      101,0000   ZeroHalf: 1      800   44,97%
      0     0       55,6241   231      101,0000       Cuts: 3      818   44,93%
      0     2       55,6241   284      101,0000       55,6241      818   44,93%
Elapsed time = 0,28 sec. (157,53 ticks, tree = 0,02 MB, solutions = 5)
   2249  1199       95,2205   103      101,0000       82,8923    86353   17,93%
   5702  2495        cutoff            101,0000       89,9283   216165   10,96%

Performing restart 1

Repeating presolve.
Tried aggregator 2 times.
MIP Presolve eliminated 29 rows and 16 columns.
MIP Presolve added 24 rows and 0 columns.
MIP Presolve modified 43 coefficients.
Aggregator did 4 substitutions.
Reduced MIP has 296 rows, 280 columns, and 1090 nonzeros.
Reduced MIP has 280 binaries, 0 generals, 0 SOSs, and 0 indicators.
Presolve time = 0,00 sec. (1,61 ticks)
Tried aggregator 1 time.
Reduced MIP has 296 rows, 280 columns, and 1090 nonzeros.
Reduced MIP has 280 binaries, 0 generals, 0 SOSs, and 0 indicators.
Presolve time = 0,00 sec. (1,08 ticks)
Represolve time = 0,02 sec. (9,80 ticks)
   6615     0       58,6090   280      101,0000      Cuts: 18   257542    9,11%
   6615     0       59,3106   280      101,0000      Cuts: 20   257623    9,11%
   6615     0       59,6939   280      101,0000      Cuts: 10   257701    9,11%
   6615     0       60,7833   280      101,0000      Cuts: 12   257867    9,11%
   6615     2       60,7833   280      101,0000       91,8007   257867    9,11%
   6640    24       70,9260   240      101,0000       91,8007   261003    9,11%
   9240  1722       95,9309   158      101,0000       91,8007   343408    9,11%
  11520  3247       97,5182   115      101,0000       91,8007   416138    9,11%
  14067  4586        cutoff            101,0000       91,8007   495437    9,11%

Performing restart 2

Repeating presolve.
Tried aggregator 1 time.
Reduced MIP has 296 rows, 280 columns, and 1090 nonzeros.
Reduced MIP has 280 binaries, 0 generals, 0 SOSs, and 0 indicators.
Presolve time = 0,00 sec. (0,80 ticks)
Tried aggregator 1 time.
Reduced MIP has 296 rows, 280 columns, and 1090 nonzeros.
Reduced MIP has 280 binaries, 0 generals, 0 SOSs, and 0 indicators.
Presolve time = 0,00 sec. (1,08 ticks)
Represolve time = 0,02 sec. (14,66 ticks)
  15069     0       61,5120   279      101,0000      Cuts: 12   542017    9,11%
  15069     0       61,7121   279      101,0000       Cuts: 8   542099    9,11%
  15069     0       61,7501   279      101,0000       Cuts: 5   542127    9,11%
  15069     0       61,9131   279      101,0000       Cuts: 7   542203    9,11%
  15069     0       62,0975   279      101,0000       Cuts: 8   542271    9,11%
  15069     0       62,5113   279      101,0000      Cuts: 13   542430    9,11%
  15069     2       62,5113   280      101,0000       91,8007   542430    9,11%
  17345  1076        cutoff            101,0000       91,8007   603972    9,11%

Clique cuts applied:  55
Cover cuts applied:  384
Flow cuts applied:  10
Mixed integer rounding cuts applied:  73
Zero-half cuts applied:  9
Lift and project cuts applied:  16
Gomory fractional cuts applied:  40

Root node processing (before b&c):
  Real time             =    0,28 sec. (157,13 ticks)
Parallel b&c, 16 threads:
  Real time             =    4,00 sec. (3269,15 ticks)
  Sync time (average)   =    1,01 sec.
  Wait time (average)   =    0,01 sec.
                          ------------
Total (root+branch&cut) =    4,28 sec. (3426,28 ticks)
